\* Dreamteam *\
Maximize
OBJ: 9.94253673475 x_0 + 10.6620194885 x_1 + 42.3231442245 x_10
 + 12.2267881765 x_11 + 34.5263849596 x_12 + 14.7887876277 x_13
 + 1.01916849243 x_14 + 27.5002609279 x_15 + 5.7736267522 x_16
 + 67.7788176555 x_17 + 12.4145426048 x_18 + 26.159426874 x_19
 + 33.537115381 x_2 + 9.33711843065 x_20 + 18.0702865374 x_21
 - 0.190187358098 x_3 + 9.27824788983 x_4 + 5.65656296157 x_5
 + 7.9592853215 x_6 + 78.5463280326 x_7 + 30.1387675593 x_8
 + 7.71839561325 x_9
Subject To
_C1: x_0 + x_12 + x_20 + x_8 >= 1
_C10: 8.5 x_0 + 8.5 x_1 + 9.5 x_10 + 10 x_11 + 9.5 x_12 + 9.5 x_13 + 8.5 x_14
 + 9 x_15 + 8.5 x_16 + 8.5 x_17 + 8.5 x_18 + 9 x_19 + 8 x_2 + 8.5 x_20
 + 8 x_21 + 8.5 x_3 + 9.5 x_4 + 8.5 x_5 + 10 x_6 + 8.5 x_7 + 8 x_8 + 8 x_9
 <= 100
_C11: x_0 + x_1 + x_10 + x_2 + x_3 + x_4 + x_5 + x_6 + x_7 + x_8 + x_9 <= 7
_C12: x_11 + x_12 + x_13 + x_14 + x_15 + x_16 + x_17 + x_18 + x_19 + x_20
 + x_21 <= 7
_C2: x_0 + x_12 + x_20 + x_8 <= 4
_C3: x_1 + x_11 + x_13 + x_17 + x_21 + x_6 >= 3
_C4: x_1 + x_11 + x_13 + x_17 + x_21 + x_6 <= 6
_C5: x_10 + x_16 + x_18 + x_4 >= 1
_C6: x_10 + x_16 + x_18 + x_4 <= 4
_C7: x_14 + x_15 + x_19 + x_2 + x_3 + x_5 + x_7 + x_9 >= 3
_C8: x_14 + x_15 + x_19 + x_2 + x_3 + x_5 + x_7 + x_9 <= 6
_C9: x_0 + x_1 + x_10 + x_11 + x_12 + x_13 + x_14 + x_15 + x_16 + x_17 + x_18
 + x_19 + x_2 + x_20 + x_21 + x_3 + x_4 + x_5 + x_6 + x_7 + x_8 + x_9 = 11
Binaries
x_0
x_1
x_10
x_11
x_12
x_13
x_14
x_15
x_16
x_17
x_18
x_19
x_2
x_20
x_21
x_3
x_4
x_5
x_6
x_7
x_8
x_9
End
